390,195
542,-21
504,59
716,358
655,419
317,670
471,406
593,285
660,385
716,358
909,332
921,406
762,246
1194,240
977,452
937,489
653,415
709,415
937,489
963,794
639,672
618,469
664,430
655,419
435,67
542,-21
681,136
737,51
875,265
1028,229
909,332
709,415
474,374
471,406
639,672
829,862
766,433
